c PicoSAT SAT Solver Version 936
c Copyright (c) 2006 - 2010 Armin Biere JKU Linz
c gcc -Wall -Wextra -DNDEBUG -O3 -fomit-frame-pointer -finline-limit=1000000
c
c using 2 as default phase
c
c parsing /home/necavit/workspace_li/sat-solver/sample_problems/vars-250-9.cnf
c parsed header 'p cnf 250 1063'
c initialized 250 variables
c found 1063 non trivial clauses
c
c random number generator seed 0
c 
c  seconds     variables   original    learned     agility
c         level        used      conflicts    limit          MB
c 
c s   0.0   0.0   250   0.0  1063     0     0     0   0.0   0.1 
c 
c initial reduction limit 531 clauses
c 
c +   0.0  23.2   250  89.2  1063   100   100   584  13.1   0.1 
c R   0.0  23.2   250  89.2  1063   100   100   584  13.2   0.1 
c +   0.0  19.1   250  96.0  1063   250   250   642  22.8   0.1 
c N   0.0  17.5   250  98.0  1063   401   401   642  26.6   0.2 
c +   0.0  16.9   250  98.0  1063   475   475   706  27.8   0.2 
c +   0.0  15.2   250  99.2  1063   812   456   776  31.1   0.2 
c N   0.0  14.1   250  99.6  1063  1205   457   776  31.1   0.2 
c +   0.0  13.8   250  99.6  1063  1317   569   853  31.3   0.2 
c +   0.0  12.9   250  99.6  1063  2074   463   938  30.8   0.2 
c N   0.0  12.1   250  99.6  1063  3207   644   938  31.7   0.2 
c +   0.0  12.0   250  99.6  1063  3209   646  1031  31.7   0.2 
c +   0.1  11.5   250  99.6  1063  4911   783  1134  31.0   0.2 
c +   0.1  11.1   250  99.6  1063  7464  1044  1247  29.0   0.2 
c N   0.1  11.0   250  99.6  1063  8020   972  1247  30.4   0.2 
c +   0.1  10.6   250  99.6  1063 11293  1100  1371  31.3   0.2 
c 1   0.1  10.7   250  99.6  1063 11321  1128  1371  30.8   0.2 
c 
c  seconds     variables   original    learned     agility
c         level        used      conflicts    limit          MB
c 
s SATISFIABLE
v 1 -2 -3 4 -5 6 -7 -8 9 10 11 -12 13 14 15 -16 17 -18 19 -20 -21 -22 -23 24 25
v 26 -27 28 29 -30 31 -32 -33 34 35 -36 -37 -38 -39 -40 -41 42 -43 -44 45 46 47
v -48 -49 50 51 52 -53 54 -55 -56 -57 -58 59 60 61 62 -63 64 65 -66 67 -68 69
v 70 71 -72 73 74 -75 76 77 -78 79 -80 81 82 -83 84 -85 86 87 88 -89 90 91 92
v 93 -94 95 96 97 -98 -99 100 -101 -102 103 104 105 106 107 -108 -109 110 111
v -112 113 -114 115 116 -117 -118 -119 120 -121 122 -123 -124 -125 -126 127
v -128 129 -130 -131 132 133 -134 -135 136 -137 138 139 -140 141 142 143 144
v -145 146 147 148 -149 -150 151 152 153 -154 -155 -156 157 -158 -159 160 161
v 162 -163 164 -165 166 167 -168 169 -170 -171 172 173 174 -175 176 177 178 179
v 180 181 -182 183 184 -185 -186 187 188 -189 -190 -191 192 193 -194 -195 -196
v 197 198 -199 200 -201 202 203 204 -205 206 207 -208 209 210 211 -212 213 214
v -215 216 217 218 -219 220 221 -222 223 -224 -225 226 227 228 229 -230 231
v -232 233 -234 235 236 -237 238 -239 -240 241 242 -243 244 -245 246 247 -248
v 249 250 0
c
c 0 iterations
c 2 restarts
c 11321 conflicts
c 0 adc conflicts
c 13177 decisions
c 0 fixed variables
c 136948 learned literals
c 25.9% deleted literals
c 639602 propagations
c 99.6% variables used
c 0.1 seconds in library
c 5.3 megaprops/second
c 1 simplifications
c 19 reductions
c 1.2 MB recycled
c 0.3 MB maximally allocated
c 0.1 seconds total run time
Command exited with non-zero status 10
0.12
